WARNING: for repeatability, setting FPU to use double precision
============================[ Problem Statistics ]=============================
|                                                                             |
|  Number of variables:            50                                         |
|  Number of clauses:             218                                         |
|  Parse time:                   0.00 s                                       |
|                                                                             |
============================[ Search Statistics ]==============================
| Conflicts |          ORIGINAL         |          LEARNT          | Progress |
|           |    Vars  Clauses Literals |    Limit  Clauses Lit/Cl |          |
===============================================================================
===============================================================================
restarts              : 1
conflicts             : 42             (29146 /sec)
decisions             : 63             (0.00 % random) (43720 /sec)
propagations          : 610            (423317 /sec)
conflict literals     : 190            (14.80 % deleted)
Memory used           : 20.00 MB
CPU time              : 0.001441 s

SATISFIABLE
